\ENCODING=ISO-8859-1
\Problem name: 

Maximize
 obj: - a0 + a1 + 0.0625000000000002 a2 + a3 + 0.8125 a4 + a5 + a6 + 0.9375 a7
      + 0.9375 a8 + 0.1875 a9 + 0.1875 a10 + a11 + 0.0624999999999988 a12
      + 0.125000000000002 a13 + 0.8125 a14 + a15 + 0.937500000000001 a17
      + 0.874999999999999 a18 + 0.124999999999998 a19 + 0.8125 a21 + a22
      + 0.0624999999999988 a23 + 0.437500000000001 a24 + 0.437500000000001 a25
      + a26 + 0.125 a27 + a28 + 0.625000000000001 a29 + a30
      + 0.562499999999999 a31 + 0.0624999999999996 a32 + 0.875 a33
      + 0.500000000000001 a34 + 0.437499999999999 a35 + 0.562500000000001 a36
      + 0.8125 a37 + 0.125 a38 + 0.499999999999999 a39 + 0.437499999999999 a40
      + 0.0624999999999996 a42 + a43 + a44 + 0.500000000000001 a45 + a46
      + 0.9375 a47 + 0.500000000000002 a48 + a50 + 0.0624999999999998 a51
      + 0.0624999999999996 a52 + 0.499999999999998 a53 + 0.499999999999998 a54
      + a55 + a56 + 0.9375 a57 + a58 + 0.500000000000002 a59 + a60 + 0.9375 a61
      + 0.1875 a65 + 0.0625000000000002 a70 + 0.0625000000000002 a72 + 0.75 a73
      + 0.0625000000000002 a74 + 0.75 a75 + 0.0625000000000002 a76
      + 0.937500000000001 a80 + 0.874999999999998 a82 + 0.1875 a83 + 0.9375 a87
      + 0.0625000000000002 a88 + 0.0624999999999988 a89 + 0.125000000000001 a92
      + 0.875000000000002 a94 + a96 + 0.1875 a98 + 0.937500000000001 a102
      + 0.562499999999997 a104 + 0.124999999999998 a105
      + 0.437500000000001 a106 + 0.75 a109 + 0.125 a110
      + 0.374999999999999 a114 + 0.125 a117 + 0.312500000000001 a118
      + 0.499999999999999 a119 + 0.437500000000001 a120 + 0.125 a121
      + 0.0624999999999988 a123 + 0.4375 a124 + 0.0625000000000037 a125
      + 0.499999999999998 a126 + 0.437499999999999 a127 + 0.1875 a129
      + 0.312499999999999 a131 + 0.562500000000001 a132
      + 0.500000000000001 a133 + 0.0624999999999988 a135
      + 0.500000000000002 a136 + a138 + 0.9375 a140 + 0.499999999999999 a146
      + 0.0624999999999996 a150 + 0.0624999999999996 a151
      + 0.437499999999999 a152 + 0.437499999999999 a153
      + 0.562500000000001 a154 + 0.500000000000001 a157
      + 0.437499999999999 a158 + 0.500000000000002 a159
      + 0.437499999999999 a160 + 0.500000000000002 a161
      + 0.0625000000000027 a163 + 0.437499999999999 a164
      + 0.0624999999999996 a169 + 0.499999999999998 a173
Subject To
 c1:   - a0 - f0 + u1 - u2 + u3 - u4 + u5 - u6 + u7 - u8 + u9 - u10 + u11 - u12
       + u13 - u14 + u15 - u16 + u17 - u18 + u19 - u20 + u21 - u22 + u23 - u24
       + u25 - u26 + u27 - u28 + u29 - u30 + u31 - u32 + u33 - u34 + u35 - u36
       + u37 - u38 + u39 - u40 + u41 - u42 + u43 - u44 + u45 - u46 + u47 - u48
       + u49 - u50 + u51 - u52 + u53 - u54 + u55 - u56 + u57 - u58 + u59 - u60
       + u61 - u62 + u63 - u64 + u65 - u66 + u67 - u68 + u69 - u70 + u71 - u72
       + u73 - u74 + u75 - u76 + u77 - u78 + u79 - u80 + u81 - u82 + u83 - u84
       + u85 - u86 + u87 - u88 + u89 - u90 + u91 - u92 + u93 - u94 + u95 - u96
       + u97 - u98 + u99 - u100 + u101 - u102 + u103 - u104 + u105 - u106
       + u107 - u108 + u109 - u110 + u111 - u112 + u113 - u114 + u115 - u116
       + u117 - u118 + u119 - u120 + u121 - u122 + u123 - u124 + u125 - u126
       + u127 - u128 + u129 - u130 + u131 - u132 + u133 - u134 + u135 - u136
       + u137 - u138 + u139 - u140 + u141 - u142 + u143 - u144 + u145 - u146
       + u147 - u148 + u149 - u150 + u151 - u152 + u153 - u154 + u155 - u156
       + u157 - u158 + u159 - u160 + u161 - u162 + u163 - u164 + 2 u165
       - 2 u166 + 2 u167 - 2 u168 + 2 u169 - 2 u170 + 2 u171 - 2 u172 + 2 u173
       - 2 u174 + 2 u175 - 2 u176 + 2 u177 - 2 u178 + 2 u179 - 2 u180 + 2 u181
       - 2 u182 + 2 u183 - 2 u184 + 2 u185 - 2 u186 + 2 u187 - 2 u188 + 2 u189
       - 2 u190 + 2 u191 - 2 u192 + 2 u193 - 2 u194 + 2 u195 - 2 u196 + 2 u197
       - 2 u198 + 2 u199 - 2 u200 + 2 u201 - 2 u202 + 2 u203 - 2 u204 + 2 u205
       - 2 u206 + 2 u207 - 2 u208 + 2 u209 - 2 u210 + 2 u211 - 2 u212 + 2 u213
       - 2 u214 + 2 u215 - 2 u216 + 2 u217 - 2 u218 + 2 u219 - 2 u220 + 2 u221
       - 2 u222 + 2 u223 - 2 u224 + 2 u225 - 2 u226 + 2 u227 - 2 u228 + 2 u229
       - 2 u230 + 2 u231 - 2 u232 + 2 u233 - 2 u234 + 2 u235 - 2 u236 + 69 u237
       + 71 u238 + 59 u239 + 50 u240 + 60 u241 + 63 u242 + 48 u243 + 74 u244
       + 6 u245 + 75 u246  = 0
 c2:   - a1 - f1 + u165 - u166 + u167 - u168 + u238 + u243 - u245 + u246  = 0
 c3:   - a2 - f2 + u1 - u2 + u167 - u168 + u169 - u170 + u238 + u241 + u242
       + u243 - u245 + u246  = 0
 c4:   - a3 - f3 + u3 - u4 + u169 - u170 + u171 - u172 + u237 + u238 + u239
       + 2 u240 + 2 u241 + 2 u242 + u243 + 2 u244 - u245 + 2 u246  = 0
 c5:   - a4 - f4 + u5 - u6 + u171 - u172 + u173 - u174 + 2 u237 + 2 u238 + u239
       + 2 u240 + 2 u241 + 2 u242 + 2 u243 + 2 u244 - 2 u245 + 2 u246  = 0
 c6:   - a5 - f5 + u7 - u8 + u173 - u174 + u175 - u176 + 2 u237 + 2 u238 + u239
       + 2 u240 + 2 u241 + 2 u242 + 2 u243 + 2 u244 - 2 u245 + 2 u246  = 0
 c7:   - a6 - f6 + u165 - u166 + u177 - u178 + u237 + u238 + u239 + u241 + u244
       + u245  = 0
 c8:   - a7 - f7 + u9 - u10 + u167 - u168 + u179 - u180 + u237 + 2 u238 + u239
       + u240 + u241 + u242 + u244 - u245 + 2 u246  = 0
 c9:   - a8 - f8 + u11 - u12 + u169 - u170 + u181 - u182 + 2 u237 + u238
       + 2 u239 + u240 + 2 u241 + 2 u242 + u243 + 2 u244 + u245 + 2 u246  = 0
 c10:  - a9 - f9 + u13 - u14 + u171 - u172 + u183 - u184 + u237 + 2 u238
       + 2 u239 + 2 u240 + 2 u241 + 2 u242 + 2 u243 + u244 + 2 u246  = 0
 c11:  - a10 - f10 + u15 - u16 + u173 - u174 + u185 - u186 + u237 + 2 u238
       + u239 + u240 + 2 u241 + 2 u242 + 2 u243 + 2 u244 - u245 + 2 u246  = 0
 c12:  - a11 - f11 + u17 - u18 + u175 - u176 + u187 - u188 + 2 u237 + 2 u238
       + 2 u239 + 2 u240 + u241 + u242 + 2 u243 + 2 u244 - u245 + u246  = 0
 c13:  - a12 - f12 + u19 - u20 + u177 - u178 + u179 - u180 + u238 + u239 + u240
       + u241 + u242 - u243 + u244 - u245 + u246  = 0
 c14:  - a13 - f13 + u21 - u22 + u179 - u180 + u181 - u182 + u237 + u238
       + 2 u240 + u241 + 2 u242 - u245 + 2 u246  = 0
 c15:  - a14 - f14 + u23 - u24 + u181 - u182 + u183 - u184 + 2 u237 + 2 u238
       + 2 u239 + 2 u240 + 2 u241 + 2 u242 + u243 + 2 u244 + 2 u245 + 2 u246
        = 0
 c16:  - a15 - f15 + u25 - u26 + u183 - u184 + u185 - u186 + 2 u237 + 2 u238
       + u239 + u240 + u241 + u242 + 2 u243 + 2 u244 + 2 u245 + 2 u246  = 0
 c17:  - a17 - f17 + u29 - u30 + u177 - u178 + u189 - u190 + 2 u237 + 2 u239
       + 2 u240 + 2 u241 + 2 u242 + u243 + 2 u244 + u245 + u246  = 0
 c18:  - a18 - f18 + u31 - u32 + u179 - u180 + u191 - u192 + 2 u237 + 2 u238
       + u239 + 2 u240 + u241 + 2 u242 + u243 + u244 - u245  = 0
 c19:  - a19 - f19 + u33 - u34 + u181 - u182 + u193 - u194 + u237 + 2 u238
       + 2 u239 + u240 + 2 u241 + u242 + u243 + 2 u244 + u245 + 2 u246  = 0
 c20:  - a21 - f21 + u37 - u38 + u185 - u186 + u197 - u198 + u237 + 2 u238
       + u239 + u241 + u242 + 2 u243 + 2 u244 - u245 + 2 u246  = 0
 c21:  - a22 - f22 + u39 - u40 + u187 - u188 + u199 - u200 + u237 + u238 + u239
       + 2 u240 + 2 u241 + 2 u242 + u243 + 2 u244 - 2 u245 + 2 u246  = 0
 c22:  - a23 - f23 + u41 - u42 + u189 - u190 + u191 - u192 + u237 + 2 u238
       + u241 + u242 + u243 + u244 - u245 - u246  = 0
 c23:  - a24 - f24 + u43 - u44 + u191 - u192 + u193 - u194 + 2 u237 + u238
       + u239 + 2 u240 + u241 + 2 u244 - u245  = 0
 c24:  - a25 - f25 + u45 - u46 + u193 - u194 + u195 - u196 + 2 u237 + 2 u238
       + 2 u239 + 2 u241 + 2 u243 + 2 u244 + 2 u246  = 0
 c25:  - a26 - f26 + u47 - u48 + u195 - u196 + u197 - u198 + 2 u237 + 2 u238
       + 2 u239 - 2 u240 + 2 u241 + u242 + 2 u243 + 2 u244 + 2 u246  = 0
 c26:  - a27 - f27 + u49 - u50 + u197 - u198 + u199 - u200 + 2 u237 + 2 u238
       + 2 u239 + u240 + 2 u241 + u243 + 2 u244 - 2 u245 + u246  = 0
 c27:  - a28 - f28 + u51 - u52 + u189 - u190 + u201 - u202 + 2 u237 + 2 u238
       + 2 u239 + 2 u240 + 2 u241 + 2 u242 + u243 + 2 u244 + 2 u246  = 0
 c28:  - a29 - f29 + u53 - u54 + u191 - u192 + u203 - u204 + 2 u237 + 2 u238
       - u239 + 2 u240 + 2 u241 + 2 u242 + 2 u244 - u245 + u246  = 0
 c29:  - a30 - f30 + u55 - u56 + u193 - u194 + u205 - u206 + 2 u237 + 2 u238
       + 2 u239 + u241 + u242 + 2 u243 + 2 u244 - u245 + 2 u246  = 0
 c30:  - a31 - f31 + u57 - u58 + u195 - u196 + u207 - u208 + u237 + 2 u238
       + 2 u239 + 2 u241 + 2 u242 + u243 + 2 u244 + u246  = 0
 c31:  - a32 - f32 + u59 - u60 + u197 - u198 + u209 - u210 + 2 u237 + 2 u238
       + 2 u239 + u240 + 2 u241 - u242 + 2 u244 - 2 u245 + 2 u246  = 0
 c32:  - a33 - f33 + u61 - u62 + u199 - u200 + u211 - u212 + 2 u237 + u238
       + 2 u239 + 2 u240 + u241 + 2 u242 + 2 u243 + 2 u244 + 2 u246  = 0
 c33:  - a34 - f34 + u63 - u64 + u201 - u202 + u203 - u204 + 2 u237 + 2 u238
       + 2 u240 + 2 u241 + 2 u242 + 2 u243 + 2 u244 + u245 + u246  = 0
 c34:  - a35 - f35 + u65 - u66 + u203 - u204 + u205 - u206 + 2 u237 + u238
       + 2 u241 + 2 u242 + 2 u243 + u244 + 2 u246  = 0
 c35:  - a36 - f36 + u67 - u68 + u205 - u206 + u207 - u208 + 2 u237 + 2 u238
       + u239 + u240 + 2 u241 + 2 u242 + 2 u244 - u245 + 2 u246  = 0
 c36:  - a37 - f37 + u69 - u70 + u207 - u208 + u209 - u210 + 2 u237 + 2 u238
       + 2 u239 + u240 + u241 + 2 u242 + 2 u244 - u245 + 2 u246  = 0
 c37:  - a38 - f38 + u71 - u72 + u209 - u210 + u211 - u212 + 2 u237 + 2 u238
       + 2 u239 + u240 + 2 u241 + 2 u242 + 2 u244 + 2 u246  = 0
 c38:  - a39 - f39 + u73 - u74 + u201 - u202 + u213 - u214 + 2 u237 + 2 u238
       + u239 + 2 u240 + 2 u241 + 2 u242 + 2 u243 + u244 + u245 + 2 u246  = 0
 c39:  - a40 - f40 + u75 - u76 + u203 - u204 + u215 - u216 + 2 u237 + 2 u238
       - u239 + 2 u240 + 2 u241 + 2 u242 + 2 u243 + 2 u244 + 2 u245 + u246  = 0
 c40:  - a42 - f42 + u79 - u80 + u207 - u208 + u219 - u220 + 2 u237 + u238
       - u239 + u240 + u243 + 2 u244 + u245 + u246  = 0
 c41:  - a43 - f43 + u81 - u82 + u209 - u210 + u221 - u222 + 2 u237 + u238
       + 2 u239 + u240 - u241 + 2 u242 - u243 + 2 u244 + 2 u246  = 0
 c42:  - a44 - f44 + u83 - u84 + u211 - u212 + u223 - u224 + 2 u237 + 2 u238
       + 2 u239 + 2 u240 + 2 u241 + 2 u242 + 2 u243 + 2 u244 + 2 u245 + 2 u246
        = 0
 c43:  - a45 - f45 + u85 - u86 + u213 - u214 + u215 - u216 + 2 u237 + 2 u238
       + 2 u239 + 2 u240 + 2 u241 + 2 u242 + 2 u243 + u244 + 2 u245 + 2 u246
        = 0
 c44:  - a46 - f46 + u87 - u88 + u215 - u216 + u217 - u218 + 2 u237 + 2 u238
       + 2 u239 + 2 u240 + 2 u241 + u242 + 2 u243 + 2 u244 + u245 + 2 u246  = 0
 c45:  - a47 - f47 + u89 - u90 + u217 - u218 + u219 - u220 + u237 + 2 u238
       + 2 u239 + u240 + u241 + u242 + 2 u243 + 2 u244 + u245 + 2 u246  = 0
 c46:  - a48 - f48 + u91 - u92 + u219 - u220 + u221 - u222 + 2 u237 + 2 u238
       + 2 u239 + 2 u240 - 2 u241 + 2 u242 + 2 u243 + 2 u244 + u245 + 2 u246
        = 0
 c47:  - a50 - f50 + u95 - u96 + u213 - u214 + u225 - u226 + 2 u237 + 2 u238
       + u239 + u240 + u241 + u242 + 2 u243 + u245 + 2 u246  = 0
 c48:  - a51 - f51 + u97 - u98 + u215 - u216 + u227 - u228 + 2 u237 + 2 u238
       + 2 u239 + 2 u240 + 2 u241 + 2 u242 + 2 u244 + 2 u245 + 2 u246  = 0
 c49:  - a52 - f52 + u99 - u100 + u217 - u218 + u229 - u230 + 2 u237 + u238
       + 2 u239 + u240 + u241 + 2 u242 + 2 u243 + u244 + 2 u246  = 0
 c50:  - a53 - f53 + u101 - u102 + u219 - u220 + u231 - u232 + 2 u237 + 2 u238
       + 2 u239 + u241 + 2 u242 + u243 + 2 u244 - u245 + 2 u246  = 0
 c51:  - a54 - f54 + u103 - u104 + u221 - u222 + u233 - u234 + 2 u237 + 2 u238
       + 2 u239 + 2 u240 + u241 + 2 u242 + u243 + 2 u244 + u245 + 2 u246  = 0
 c52:  - a55 - f55 + u105 - u106 + u223 - u224 + u235 - u236 + 2 u237 + 2 u238
       + 2 u239 + 2 u240 + 2 u241 + 2 u242 + 2 u243 + 2 u244 + u245 + 2 u246
        = 0
 c53:  - a56 - f56 + u107 - u108 + u225 - u226 + u227 - u228 + 2 u237 + 2 u238
       + 2 u239 + 2 u240 + u241 + u243 + 2 u244 + 2 u245 + 2 u246  = 0
 c54:  - a57 - f57 + u109 - u110 + u227 - u228 + u229 - u230 + 2 u237 + 2 u238
       + 2 u239 + 2 u240 + u241 + 2 u242 + 2 u243 + 2 u244 + 2 u245 + 2 u246
        = 0
 c55:  - a58 - f58 + u111 - u112 + u229 - u230 + u231 - u232 + 2 u237 + 2 u238
       + 2 u239 + u240 + 2 u241 + 2 u242 + 2 u244 + 2 u246  = 0
 c56:  - a59 - f59 + u113 - u114 + u231 - u232 + u233 - u234 + 2 u237 + u238
       + 2 u239 + u241 + 2 u242 + u243 + 2 u244 - u245 + 2 u246  = 0
 c57:  - a60 - f60 + u115 - u116 + u233 - u234 + u235 - u236 + u237 + u238
       + u239 + u241 + u242 + u243 + u244 + 2 u245 + u246  = 0
 c58:  - a61 - f61 + u1 - u2 + u117 - u118 - u237 + u238 - u239 - u240 + u241
       + u242  = 0
 c59:  - a65 - f65 + u5 - u6 + u121 - u122 + u237 + u238 + u240 + u242 + u244
       - u245 + u246  = 0
 c60:  - a70 - f70 + u9 - u10 + u117 - u118 + u238 - u240 + u241 - u243 + u245
       + u246  = 0
 c61:  - a72 - f72 + u11 - u12 + u119 - u120 - u237 - u238 - 2 u240 + u242
       - u244  = 0
 c62:  - a73 - f73 + u13 - u14 + u119 - u120 - u237 + u239 + u242 - u244 - u245
       + u246  = 0
 c63:  - a74 - f74 + u13 - u14 + u121 - u122 + u238 + u239 - u245 + u246  = 0
 c64:  - a75 - f75 + u15 - u16 + u121 - u122 + u237 + u238 + u239 + u240 + u242
       + u244 - u245 + u246  = 0
 c65:  - a76 - f76 + u15 - u16 + u123 - u124 - u237 + u239 + u240 + u241 - u242
       - u245 + u246  = 0
 c66:  - a80 - f80 + u19 - u20 + u125 - u126 - u237 + u238 - u239 - u240 + u244
       - 2 u245 + u246  = 0
 c67:  - a82 - f82 + u21 - u22 + u127 - u128 - u237 - u239 + u240 + u242 - u243
       + u246  = 0
 c68:  - a83 - f83 + u23 - u24 + u119 - u120 - u237 + u239 + u242 + u246  = 0
 c69:  - a87 - f87 + u27 - u28 + u123 - u124 - u237 + u239 + u240 + u241 - u242
       - u243 - u244 + u246  = 0
 c70:  - a88 - f88 + u27 - u28 + u133 - u134 + u239 + u240 - u241 - u243 + u245
       + u246  = 0
 c71:  - a89 - f89 + u29 - u30 + u125 - u126 + u244 - u245  = 0
 c72:  - a92 - f92 + u31 - u32 + u127 - u128 - u237 + u240 - u241 + u242 + u244
       + u245 - u246  = 0
 c73:  - a94 - f94 + u33 - u34 + u129 - u130 + u237 + u238 + u239 + u240 + u241
       + u243 + u245 + u246  = 0
 c74:  - a96 - f96 + u35 - u36 + u131 - u132 + u237 + u238 + u239 + u242 + u245
       + u246  = 0
 c75:  - a98 - f98 + u37 - u38 + u133 - u134 - u237 + u238 - u241 + u242 + u243
       - u245 + u246  = 0
 c76:  - a102 - f102 + u41 - u42 + u135 - u136 + u237 + u238 - u239 - u240
       + u241 - u242 + u243 - u246  = 0
 c77:  - a104 - f104 + u43 - u44 + u137 - u138 - u238 + u240 - u241 - u242
       - u243 + u244 + u245  = 0
 c78:  - a105 - f105 + u45 - u46 + u129 - u130 + u237 + u238 + u239 + u241
       - u242 + u243 + u244 + u246  = 0
 c79:  - a106 - f106 + u45 - u46 + u139 - u140 + u239 - u240 + u241 + u242
       + u244 + u246  = 0
 c80:  - a109 - f109 + u49 - u50 + u133 - u134 + u237 + u238 + u239 + u240
       + u243 + u244 + u246  = 0
 c81:  - a110 - f110 + u49 - u50 + u143 - u144 + u237 + u238 + u239 + u240
       + u241 + u243 + u246  = 0
 c82:  - a114 - f114 + u53 - u54 + u137 - u138 - u239 + u240 - u243 + u244
       + u246  = 0
 c83:  - a117 - f117 + u57 - u58 + u139 - u140 - u237 + u239 - u240 + u242  = 0
 c84:  - a118 - f118 + u57 - u58 + u141 - u142 + u237 + u238 + u239 - u240
       + u241 + u242  = 0
 c85:  - a119 - f119 + u59 - u60 + u141 - u142 + u237 + u238 + u239 + u241
       + u243 + u245 + u246  = 0
 c86:  - a120 - f120 + u59 - u60 + u143 - u144 + u237 + u238 + u239 + u240
       + u241 - u242 + u243 + u244 + u245 + u246  = 0
 c87:  - a121 - f121 + u61 - u62 + u143 - u144 + u237 - u238 + u244 + u245
       + u246  = 0
 c88:  - a123 - f123 + u63 - u64 + u135 - u136 + u237 - 2 u239 + u241 - u245
        = 0
 c89:  - a124 - f124 + u63 - u64 + u145 - u146 + u242 - u245  = 0
 c90:  - a125 - f125 + u65 - u66 + u137 - u138 - u238 - u239 + u244 + u246  = 0
 c91:  - a126 - f126 + u65 - u66 + u147 - u148 - u238 - u240 + u242 + u244
       - u245 + u246  = 0
 c92:  - a127 - f127 + u67 - u68 + u139 - u140 + u239 + u241 + u242 - u243
       + u244 + u246  = 0
 c93:  - a129 - f129 + u69 - u70 + u141 - u142 + u237 + u238 + u239 - u240
       + u242 + u243 + u246  = 0
 c94:  - a131 - f131 + u71 - u72 + u143 - u144 + u237 + u238 + u239 + u241
       + u242 + u243 + u244 + u245 + u246  = 0
 c95:  - a132 - f132 + u71 - u72 + u153 - u154 + u237 + u238 + u239 - u240
       + u241 + u242 + u243 + u244 + u246  = 0
 c96:  - a133 - f133 + u73 - u74 + u145 - u146 - u240 + u242 - u245  = 0
 c97:  - a135 - f135 + u75 - u76 + u145 - u146 - u239 - u240 + u242 - u246  = 0
 c98:  - a136 - f136 + u75 - u76 + u147 - u148 - u239 + u242 + u244  = 0
 c99:  - a138 - f138 + u77 - u78 + u149 - u150 + u237 + u238 - u239 + u240
       + u241 - u242 + u243 + u244 + u245 + u246  = 0
 c100: - a140 - f140 + u79 - u80 + u151 - u152 + u237 - u239 + u240 + u241
       - u242 + u243 + u244 + u245 + u246  = 0
 c101: - a146 - f146 + u85 - u86 + u155 - u156 + u237 + u238 + u239 + u240
       + u241 + u242 + u243 + u244 + u246  = 0
 c102: - a150 - f150 + u89 - u90 + u159 - u160 - u237 + u239 + u240 + u244
       + u245  = 0
 c103: - a151 - f151 + u91 - u92 + u151 - u152 + u240 + u243 + u244 - u245
       + u246  = 0
 c104: - a152 - f152 + u91 - u92 + u161 - u162 + u238 + u239 + u242 + u244
       - u245  = 0
 c105: - a153 - f153 + u93 - u94 + u153 - u154 + u237 - u238 + u239 + u241
       + u242 + u243 + u244  = 0
 c106: - a154 - f154 + u93 - u94 + u163 - u164 - u238 + u240 + u241 + u242
       + u244 - u246  = 0
 c107: - a157 - f157 + u97 - u98 + u155 - u156 + u237 + u238 + u239 + u240
       + u241 + u242 + u244 + u246  = 0
 c108: - a158 - f158 + u97 - u98 + u157 - u158 + u237 + u238 + u239 + u240
       + u241 + u242 - 2 u243 + u244 + u246  = 0
 c109: - a159 - f159 + u99 - u100 + u157 - u158 + u237 + u239 + u240 - u243
       + u244 + u246  = 0
 c110: - a160 - f160 + u99 - u100 + u159 - u160 - u238 + u239 + u240 - u241
       + u242 + u245  = 0
 c111: - a161 - f161 + u101 - u102 + u159 - u160 + u238 + u239 + u242  = 0
 c112: - a163 - f163 + u103 - u104 + u161 - u162 + u238 + u241 + u242 - u243
       + u244 - u245  = 0
 c113: - a164 - f164 + u103 - u104 + u163 - u164 + u238 + u240 + u241 + u242
       - u243 + u244  = 0
 c114: - a169 - f169 + u109 - u110 + u157 - u158 + u237 + u238 + u239 + u240
       + u242 + u244 + u245 + u246  = 0
 c115: - a173 - f173 + u113 - u114 + u161 - u162 + u239 - u240 + u242 + u244
       - u245  = 0
 c116: u237 + u238 + u239 + u240 + u241 + u242 + u243 + u244 + u245 + u246  = 0
Bounds
      a0 Free
      a1 Free
      a2 Free
      a3 Free
      a4 Free
      a5 Free
      a6 Free
      a7 Free
      a8 Free
      a9 Free
      a10 Free
      a11 Free
      a12 Free
      a13 Free
      a14 Free
      a15 Free
      a17 Free
      a18 Free
      a19 Free
      a21 Free
      a22 Free
      a23 Free
      a24 Free
      a25 Free
      a26 Free
      a27 Free
      a28 Free
      a29 Free
      a30 Free
      a31 Free
      a32 Free
      a33 Free
      a34 Free
      a35 Free
      a36 Free
      a37 Free
      a38 Free
      a39 Free
      a40 Free
      a42 Free
      a43 Free
      a44 Free
      a45 Free
      a46 Free
      a47 Free
      a48 Free
      a50 Free
      a51 Free
      a52 Free
      a53 Free
      a54 Free
      a55 Free
      a56 Free
      a57 Free
      a58 Free
      a59 Free
      a60 Free
      a61 Free
      a65 Free
      a70 Free
      a72 Free
      a73 Free
      a74 Free
      a75 Free
      a76 Free
      a80 Free
      a82 Free
      a83 Free
      a87 Free
      a88 Free
      a89 Free
      a92 Free
      a94 Free
      a96 Free
      a98 Free
      a102 Free
      a104 Free
      a105 Free
      a106 Free
      a109 Free
      a110 Free
      a114 Free
      a117 Free
      a118 Free
      a119 Free
      a120 Free
      a121 Free
      a123 Free
      a124 Free
      a125 Free
      a126 Free
      a127 Free
      a129 Free
      a131 Free
      a132 Free
      a133 Free
      a135 Free
      a136 Free
      a138 Free
      a140 Free
      a146 Free
      a150 Free
      a151 Free
      a152 Free
      a153 Free
      a154 Free
      a157 Free
      a158 Free
      a159 Free
      a160 Free
      a161 Free
      a163 Free
      a164 Free
      a169 Free
      a173 Free
 0 <= f0 <= 0.99
 0 <= f1 <= 0.99
 0 <= f2 <= 0.99
 0 <= f3 <= 0.99
 0 <= f4 <= 0.99
 0 <= f5 <= 0.99
 0 <= f6 <= 0.99
 0 <= f7 <= 0.99
 0 <= f8 <= 0.99
 0 <= f9 <= 0.99
 0 <= f10 <= 0.99
 0 <= f11 <= 0.99
 0 <= f12 <= 0.99
 0 <= f13 <= 0.99
 0 <= f14 <= 0.99
 0 <= f15 <= 0.99
 0 <= f17 <= 0.99
 0 <= f18 <= 0.99
 0 <= f19 <= 0.99
 0 <= f21 <= 0.99
 0 <= f22 <= 0.99
 0 <= f23 <= 0.99
 0 <= f24 <= 0.99
 0 <= f25 <= 0.99
 0 <= f26 <= 0.99
 0 <= f27 <= 0.99
 0 <= f28 <= 0.99
 0 <= f29 <= 0.99
 0 <= f30 <= 0.99
 0 <= f31 <= 0.99
 0 <= f32 <= 0.99
 0 <= f33 <= 0.99
 0 <= f34 <= 0.99
 0 <= f35 <= 0.99
 0 <= f36 <= 0.99
 0 <= f37 <= 0.99
 0 <= f38 <= 0.99
 0 <= f39 <= 0.99
 0 <= f40 <= 0.99
 0 <= f42 <= 0.99
 0 <= f43 <= 0.99
 0 <= f44 <= 0.99
 0 <= f45 <= 0.99
 0 <= f46 <= 0.99
 0 <= f47 <= 0.99
 0 <= f48 <= 0.99
 0 <= f50 <= 0.99
 0 <= f51 <= 0.99
 0 <= f52 <= 0.99
 0 <= f53 <= 0.99
 0 <= f54 <= 0.99
 0 <= f55 <= 0.99
 0 <= f56 <= 0.99
 0 <= f57 <= 0.99
 0 <= f58 <= 0.99
 0 <= f59 <= 0.99
 0 <= f60 <= 0.99
 0 <= f61 <= 0.99
 0 <= f65 <= 0.99
 0 <= f70 <= 0.99
 0 <= f72 <= 0.99
 0 <= f73 <= 0.99
 0 <= f74 <= 0.99
 0 <= f75 <= 0.99
 0 <= f76 <= 0.99
 0 <= f80 <= 0.99
 0 <= f82 <= 0.99
 0 <= f83 <= 0.99
 0 <= f87 <= 0.99
 0 <= f88 <= 0.99
 0 <= f89 <= 0.99
 0 <= f92 <= 0.99
 0 <= f94 <= 0.99
 0 <= f96 <= 0.99
 0 <= f98 <= 0.99
 0 <= f102 <= 0.99
 0 <= f104 <= 0.99
 0 <= f105 <= 0.99
 0 <= f106 <= 0.99
 0 <= f109 <= 0.99
 0 <= f110 <= 0.99
 0 <= f114 <= 0.99
 0 <= f117 <= 0.99
 0 <= f118 <= 0.99
 0 <= f119 <= 0.99
 0 <= f120 <= 0.99
 0 <= f121 <= 0.99
 0 <= f123 <= 0.99
 0 <= f124 <= 0.99
 0 <= f125 <= 0.99
 0 <= f126 <= 0.99
 0 <= f127 <= 0.99
 0 <= f129 <= 0.99
 0 <= f131 <= 0.99
 0 <= f132 <= 0.99
 0 <= f133 <= 0.99
 0 <= f135 <= 0.99
 0 <= f136 <= 0.99
 0 <= f138 <= 0.99
 0 <= f140 <= 0.99
 0 <= f146 <= 0.99
 0 <= f150 <= 0.99
 0 <= f151 <= 0.99
 0 <= f152 <= 0.99
 0 <= f153 <= 0.99
 0 <= f154 <= 0.99
 0 <= f157 <= 0.99
 0 <= f158 <= 0.99
 0 <= f159 <= 0.99
 0 <= f160 <= 0.99
 0 <= f161 <= 0.99
 0 <= f163 <= 0.99
 0 <= f164 <= 0.99
 0 <= f169 <= 0.99
 0 <= f173 <= 0.99
 0 <= u1 <= 0.99
 0 <= u2 <= 0.99
 0 <= u3 <= 0.99
 0 <= u4 <= 0.99
 0 <= u5 <= 0.99
 0 <= u6 <= 0.99
 0 <= u7 <= 0.99
 0 <= u8 <= 0.99
 0 <= u9 <= 0.99
 0 <= u10 <= 0.99
 0 <= u11 <= 0.99
 0 <= u12 <= 0.99
 0 <= u13 <= 0.99
 0 <= u14 <= 0.99
 0 <= u15 <= 0.99
 0 <= u16 <= 0.99
 0 <= u17 <= 0.99
 0 <= u18 <= 0.99
 0 <= u19 <= 0.99
 0 <= u20 <= 0.99
 0 <= u21 <= 0.99
 0 <= u22 <= 0.99
 0 <= u23 <= 0.99
 0 <= u24 <= 0.99
 0 <= u25 <= 0.99
 0 <= u26 <= 0.99
 0 <= u27 <= 0.99
 0 <= u28 <= 0.99
 0 <= u29 <= 0.99
 0 <= u30 <= 0.99
 0 <= u31 <= 0.99
 0 <= u32 <= 0.99
 0 <= u33 <= 0.99
 0 <= u34 <= 0.99
 0 <= u35 <= 0.99
 0 <= u36 <= 0.99
 0 <= u37 <= 0.99
 0 <= u38 <= 0.99
 0 <= u39 <= 0.99
 0 <= u40 <= 0.99
 0 <= u41 <= 0.99
 0 <= u42 <= 0.99
 0 <= u43 <= 0.99
 0 <= u44 <= 0.99
 0 <= u45 <= 0.99
 0 <= u46 <= 0.99
 0 <= u47 <= 0.99
 0 <= u48 <= 0.99
 0 <= u49 <= 0.99
 0 <= u50 <= 0.99
 0 <= u51 <= 0.99
 0 <= u52 <= 0.99
 0 <= u53 <= 0.99
 0 <= u54 <= 0.99
 0 <= u55 <= 0.99
 0 <= u56 <= 0.99
 0 <= u57 <= 0.99
 0 <= u58 <= 0.99
 0 <= u59 <= 0.99
 0 <= u60 <= 0.99
 0 <= u61 <= 0.99
 0 <= u62 <= 0.99
 0 <= u63 <= 0.99
 0 <= u64 <= 0.99
 0 <= u65 <= 0.99
 0 <= u66 <= 0.99
 0 <= u67 <= 0.99
 0 <= u68 <= 0.99
 0 <= u69 <= 0.99
 0 <= u70 <= 0.99
 0 <= u71 <= 0.99
 0 <= u72 <= 0.99
 0 <= u73 <= 0.99
 0 <= u74 <= 0.99
 0 <= u75 <= 0.99
 0 <= u76 <= 0.99
 0 <= u77 <= 0.99
 0 <= u78 <= 0.99
 0 <= u79 <= 0.99
 0 <= u80 <= 0.99
 0 <= u81 <= 0.99
 0 <= u82 <= 0.99
 0 <= u83 <= 0.99
 0 <= u84 <= 0.99
 0 <= u85 <= 0.99
 0 <= u86 <= 0.99
 0 <= u87 <= 0.99
 0 <= u88 <= 0.99
 0 <= u89 <= 0.99
 0 <= u90 <= 0.99
 0 <= u91 <= 0.99
 0 <= u92 <= 0.99
 0 <= u93 <= 0.99
 0 <= u94 <= 0.99
 0 <= u95 <= 0.99
 0 <= u96 <= 0.99
 0 <= u97 <= 0.99
 0 <= u98 <= 0.99
 0 <= u99 <= 0.99
 0 <= u100 <= 0.99
 0 <= u101 <= 0.99
 0 <= u102 <= 0.99
 0 <= u103 <= 0.99
 0 <= u104 <= 0.99
 0 <= u105 <= 0.99
 0 <= u106 <= 0.99
 0 <= u107 <= 0.99
 0 <= u108 <= 0.99
 0 <= u109 <= 0.99
 0 <= u110 <= 0.99
 0 <= u111 <= 0.99
 0 <= u112 <= 0.99
 0 <= u113 <= 0.99
 0 <= u114 <= 0.99
 0 <= u115 <= 0.99
 0 <= u116 <= 0.99
 0 <= u117 <= 0.99
 0 <= u118 <= 0.99
 0 <= u119 <= 0.99
 0 <= u120 <= 0.99
 0 <= u121 <= 0.99
 0 <= u122 <= 0.99
 0 <= u123 <= 0.99
 0 <= u124 <= 0.99
 0 <= u125 <= 0.99
 0 <= u126 <= 0.99
 0 <= u127 <= 0.99
 0 <= u128 <= 0.99
 0 <= u129 <= 0.99
 0 <= u130 <= 0.99
 0 <= u131 <= 0.99
 0 <= u132 <= 0.99
 0 <= u133 <= 0.99
 0 <= u134 <= 0.99
 0 <= u135 <= 0.99
 0 <= u136 <= 0.99
 0 <= u137 <= 0.99
 0 <= u138 <= 0.99
 0 <= u139 <= 0.99
 0 <= u140 <= 0.99
 0 <= u141 <= 0.99
 0 <= u142 <= 0.99
 0 <= u143 <= 0.99
 0 <= u144 <= 0.99
 0 <= u145 <= 0.99
 0 <= u146 <= 0.99
 0 <= u147 <= 0.99
 0 <= u148 <= 0.99
 0 <= u149 <= 0.99
 0 <= u150 <= 0.99
 0 <= u151 <= 0.99
 0 <= u152 <= 0.99
 0 <= u153 <= 0.99
 0 <= u154 <= 0.99
 0 <= u155 <= 0.99
 0 <= u156 <= 0.99
 0 <= u157 <= 0.99
 0 <= u158 <= 0.99
 0 <= u159 <= 0.99
 0 <= u160 <= 0.99
 0 <= u161 <= 0.99
 0 <= u162 <= 0.99
 0 <= u163 <= 0.99
 0 <= u164 <= 0.99
 0 <= u165 <= 0.99
 0 <= u166 <= 0.99
 0 <= u167 <= 0.99
 0 <= u168 <= 0.99
 0 <= u169 <= 0.99
 0 <= u170 <= 0.99
 0 <= u171 <= 0.99
 0 <= u172 <= 0.99
 0 <= u173 <= 0.99
 0 <= u174 <= 0.99
 0 <= u175 <= 0.99
 0 <= u176 <= 0.99
 0 <= u177 <= 0.99
 0 <= u178 <= 0.99
 0 <= u179 <= 0.99
 0 <= u180 <= 0.99
 0 <= u181 <= 0.99
 0 <= u182 <= 0.99
 0 <= u183 <= 0.99
 0 <= u184 <= 0.99
 0 <= u185 <= 0.99
 0 <= u186 <= 0.99
 0 <= u187 <= 0.99
 0 <= u188 <= 0.99
 0 <= u189 <= 0.99
 0 <= u190 <= 0.99
 0 <= u191 <= 0.99
 0 <= u192 <= 0.99
 0 <= u193 <= 0.99
 0 <= u194 <= 0.99
 0 <= u195 <= 0.99
 0 <= u196 <= 0.99
 0 <= u197 <= 0.99
 0 <= u198 <= 0.99
 0 <= u199 <= 0.99
 0 <= u200 <= 0.99
 0 <= u201 <= 0.99
 0 <= u202 <= 0.99
 0 <= u203 <= 0.99
 0 <= u204 <= 0.99
 0 <= u205 <= 0.99
 0 <= u206 <= 0.99
 0 <= u207 <= 0.99
 0 <= u208 <= 0.99
 0 <= u209 <= 0.99
 0 <= u210 <= 0.99
 0 <= u211 <= 0.99
 0 <= u212 <= 0.99
 0 <= u213 <= 0.99
 0 <= u214 <= 0.99
 0 <= u215 <= 0.99
 0 <= u216 <= 0.99
 0 <= u217 <= 0.99
 0 <= u218 <= 0.99
 0 <= u219 <= 0.99
 0 <= u220 <= 0.99
 0 <= u221 <= 0.99
 0 <= u222 <= 0.99
 0 <= u223 <= 0.99
 0 <= u224 <= 0.99
 0 <= u225 <= 0.99
 0 <= u226 <= 0.99
 0 <= u227 <= 0.99
 0 <= u228 <= 0.99
 0 <= u229 <= 0.99
 0 <= u230 <= 0.99
 0 <= u231 <= 0.99
 0 <= u232 <= 0.99
 0 <= u233 <= 0.99
 0 <= u234 <= 0.99
 0 <= u235 <= 0.99
 0 <= u236 <= 0.99
 0 <= u237 <= 0.99
 0 <= u238 <= 0.99
 0 <= u239 <= 0.99
 0 <= u240 <= 0.99
 0 <= u241 <= 0.99
 0 <= u242 <= 0.99
 0 <= u243 <= 0.99
 0 <= u244 <= 0.99
 0 <= u245 <= 0.99
 0 <= u246 <= 0.99
Generals
 a0  a1  a2  a3  a4  a5  a6  a7  a8  a9  a10  a11  a12  a13  a14  a15  a17 
 a18  a19  a21  a22  a23  a24  a25  a26  a27  a28  a29  a30  a31  a32  a33 
 a34  a35  a36  a37  a38  a39  a40  a42  a43  a44  a45  a46  a47  a48  a50 
 a51  a52  a53  a54  a55  a56  a57  a58  a59  a60  a61  a65  a70  a72  a73 
 a74  a75  a76  a80  a82  a83  a87  a88  a89  a92  a94  a96  a98  a102  a104 
 a105  a106  a109  a110  a114  a117  a118  a119  a120  a121  a123  a124  a125 
 a126  a127  a129  a131  a132  a133  a135  a136  a138  a140  a146  a150  a151 
 a152  a153  a154  a157  a158  a159  a160  a161  a163  a164  a169  a173 
End
